50
3238 6201 85 9829 8222 9991 2634 1995 548 1939 242 6918 3657 8156 7607 3494 1668 3477 303 6484 1898 1488 8885 4371 9461 9803 6640 2498 1478 2466 7367 5119 2980 175 3511 3928 694 2495 2955 4160 4940 5657 8496 2950 949 3032 2161 5757 4763 3211 
2427 6703 678 10076 8628 10701 1704 1372 731 2341 627 6928 3271 7643 8355 4460 1667 3412 168 6687 1321 1739 8442 4306 10192 9426 6710 2135 1449 3201 7352 6049 2796 534 3801 3930 1139 2076 1982 4005 4068 5153 8692 3331 1774 3389 2272 5445 4717 2787 
104443
